(set-info :smt-lib-version 2.6)
(set-logic QF_UFLRA)
(set-info :source |
MathSat group

|)
(set-info :category "random")
(set-info :status unsat)
(declare-fun x0 () Real)
(declare-fun x1 () Real)
(declare-fun x2 () Real)
(declare-fun x3 () Real)
(declare-fun x4 () Real)
(declare-fun x5 () Real)
(declare-fun x6 () Real)
(declare-fun x7 () Real)
(declare-fun x8 () Real)
(declare-fun x9 () Real)
(declare-fun x10 () Real)
(declare-fun x11 () Real)
(declare-fun x12 () Real)
(declare-fun x13 () Real)
(declare-fun x14 () Real)
(declare-fun x15 () Real)
(declare-fun x16 () Real)
(declare-fun x17 () Real)
(declare-fun x18 () Real)
(declare-fun x19 () Real)
(declare-fun x20 () Real)
(declare-fun x21 () Real)
(declare-fun x22 () Real)
(declare-fun x23 () Real)
(declare-fun x24 () Real)
(declare-fun x25 () Real)
(declare-fun x26 () Real)
(declare-fun x27 () Real)
(declare-fun x28 () Real)
(declare-fun x29 () Real)
(declare-fun x30 () Real)
(declare-fun x31 () Real)
(declare-fun x32 () Real)
(declare-fun x33 () Real)
(declare-fun x34 () Real)
(declare-fun x35 () Real)
(declare-fun x36 () Real)
(declare-fun x37 () Real)
(declare-fun x38 () Real)
(declare-fun x39 () Real)
(declare-fun f0_1 (Real) Real)
(declare-fun f0_2 (Real Real) Real)
(declare-fun f0_3 (Real Real Real) Real)
(declare-fun f0_4 (Real Real Real Real) Real)
(declare-fun P0 () Bool)
(declare-fun P1 () Bool)
(declare-fun P2 () Bool)
(declare-fun P3 () Bool)
(declare-fun P4 () Bool)
(declare-fun P5 () Bool)
(declare-fun P6 () Bool)
(declare-fun P7 () Bool)
(declare-fun P8 () Bool)
(declare-fun P9 () Bool)
(declare-fun P10 () Bool)
(declare-fun P11 () Bool)
(declare-fun P12 () Bool)
(declare-fun P13 () Bool)
(declare-fun P14 () Bool)
(declare-fun P15 () Bool)
(declare-fun P16 () Bool)
(declare-fun P17 () Bool)
(declare-fun P18 () Bool)
(declare-fun P19 () Bool)
(declare-fun P20 () Bool)
(declare-fun P21 () Bool)
(declare-fun P22 () Bool)
(declare-fun P23 () Bool)
(declare-fun P24 () Bool)
(declare-fun P25 () Bool)
(declare-fun P26 () Bool)
(declare-fun P27 () Bool)
(declare-fun P28 () Bool)
(declare-fun P29 () Bool)
(declare-fun P30 () Bool)
(declare-fun P31 () Bool)
(declare-fun P32 () Bool)
(declare-fun P33 () Bool)
(declare-fun P34 () Bool)
(declare-fun P35 () Bool)
(declare-fun P36 () Bool)
(declare-fun P37 () Bool)
(declare-fun P38 () Bool)
(declare-fun P39 () Bool)
(assert (let ((?v_160 (* 4 x39)) (?v_62 (distinct (- (+ (* 19 x8) (* 18 x27)) (* 29 x2)) 19)) (?v_105 (<= (- (+ (* 46 x37) (* 5 x12)) (* 40 x17)) 48)) (?v_78 (< (- (- (* 17 x37) (* 4 x11)) (* 56 x7)) 4)) (?v_92 (distinct x0 x6)) (?v_65 (f0_1 x12))) (let ((?v_67 (distinct (f0_2 x21 x22) ?v_65)) (?v_27 (= x7 x39)) (?v_94 (= (f0_2 x13 x29) x5)) (?v_31 (distinct (f0_1 x39) ?v_65)) (?v_137 (= (f0_2 x5 x28) (f0_2 x28 x15))) (?v_101 (distinct (f0_2 x20 x5) x36)) (?v_80 (= (f0_1 x8) (f0_2 x9 x36))) (?v_63 (distinct x16 (f0_1 x31))) (?v_34 (f0_2 x19 x14))) (let ((?v_66 (= ?v_34 x5)) (?v_1 (f0_1 x2)) (?v_2 (f0_1 x35))) (let ((?v_89 (= ?v_1 ?v_2)) (?v_121 (distinct (f0_1 x3) (f0_2 x23 x4))) (?v_150 (distinct x21 (f0_2 x31 x37))) (?v_53 (distinct ?v_2 ?v_1)) (?v_11 (f0_1 x37))) (let ((?v_19 (= (f0_2 x27 x27) ?v_11)) (?v_93 (= x18 x10)) (?v_32 (f0_1 x36))) (let ((?v_56 (= (f0_2 x12 x12) ?v_32)) (?v_70 (distinct (f0_2 x12 x3) (f0_1 x21))) (?v_141 (= (f0_1 x33) (f0_1 x1))) (?v_12 (= x26 (f0_2 x24 x17))) (?v_81 (f0_1 x38))) (let ((?v_156 (= ?v_81 x16)) (?v_10 (= (f0_1 x19) (f0_2 x36 x14))) (?v_3 (distinct (f0_2 x24 x5) x8)) (?v_143 (distinct x26 ?v_11)) (?v_179 (= ?v_32 x15)) (?v_189 (= (f0_1 x0) x5)) (?v_85 (= ?v_34 (f0_1 x13))) (?v_43 (= x20 (f0_2 x38 x37))) (?v_168 (= (f0_1 x7) (f0_2 x17 x14))) (?v_47 (distinct (f0_1 x22) x11)) (?v_28 (distinct ?v_2 (f0_2 x15 x9))) (?v_135 (distinct x4 (f0_2 x39 x26))) (?v_40 (distinct (f0_2 x21 x7) (f0_1 x34))) (?v_22 (= (f0_2 x8 x25) (f0_1 x14))) (?v_125 (distinct (f0_1 x15) x7)) (?v_0 (f0_1 x30))) (let ((?v_18 (distinct ?v_81 ?v_0)) (?v_109 (= (f0_2 x36 x0) (f0_2 x2 x23))) (?v_148 (= x36 x7)) (?v_23 (= (f0_2 x4 x29) ?v_1)) (?v_157 (distinct ?v_0 (f0_2 x25 x15)))) (let ((?v_44 (not ?v_18)) (?v_111 (not ?v_157)) (?v_21 (not ?v_143)) (?v_138 (not P10)) (?v_59 (not ?v_22)) (?v_87 (not ?v_89)) (?v_38 (not P30)) (?v_76 (not ?v_92)) (?v_24 (not P27)) (?v_202 (not P39)) (?v_114 (not P4)) (?v_170 (not ?v_62)) (?v_30 (not P13)) (?v_100 (not P38)) (?v_20 (not ?v_3)) (?v_68 (not P29)) (?v_52 (not ?v_109)) (?v_26 (not P2)) (?v_37 (not ?v_10)) (?v_86 (not P20)) (?v_14 (not P12)) (?v_36 (not ?v_105)) (?v_9 (not ?v_27)) (?v_82 (not ?v_31)) (?v_84 (not P8)) (?v_16 (not ?v_12)) (?v_113 (not P25)) (?v_194 (not P24)) (?v_61 (not ?v_23)) (?v_72 (not P1)) (?v_120 (not ?v_179)) (?v_41 (not P22)) (?v_55 (not P14)) (?v_142 (not P5)) (?v_83 (not P18)) (?v_182 (not ?v_168)) (?v_146 (not ?v_40)) (?v_57 (not ?v_80)) (?v_48 (not P6)) (?v_159 (not P37)) (?v_166 (not ?v_47)) (?v_134 (not P15)) (?v_73 (not ?v_53)) (?v_129 (not P32)) (?v_169 (not ?v_121)) (?v_99 (not P9)) (?v_172 (not ?v_94)) (?v_152 (not ?v_19)) (?v_193 (not P36)) (?v_69 (not ?v_137)) (?v_145 (not ?v_56)) (?v_107 (not ?v_66)) (?v_183 (not ?v_67)) (?v_174 (not P23)) (?v_104 (not ?v_70)) (?v_128 (not P16)) (?v_117 (not ?v_78)) (?v_203 (not ?v_156)) (?v_119 (not ?v_125)) (?v_116 (not P19)) (?v_106 (not ?v_85)) (?v_153 (not P17)) (?v_139 (not ?v_93)) (?v_108 (not P31)) (?v_164 (not ?v_101)) (?v_151 (not ?v_148)) (?v_199 (not P35)) (?v_130 (not P21)) (?v_136 (not ?v_63)) (?v_122 (not P34)) (?v_158 (not P28)) (?v_176 (not P3)) (?v_162 (not ?v_141)) (?v_187 (not ?v_150)) (?v_147 (not P11)) (?v_165 (not P7)) (?v_197 (not ?v_28)) (?v_186 (not ?v_135)) (?v_198 (not P26)) (?v_210 (not ?v_189))) (let ((?v_201 (or ?v_106 ?v_84)) (?v_204 (not ?v_43)) (?v_208 (not P33)) (?v_207 (or P6 ?v_37)) (?v_209 (not P0)) (?v_5 (< (+ (- x24 (* 3 x35)) ?v_160) 22))) (let ((?v_200 (not ?v_5)) (?v_60 (distinct (+ (- (* 25 x13) 0) (* 49 x12)) 30))) (let ((?v_173 (not ?v_60)) (?v_167 (<= (+ (* 50 x17) (* 52 x27) (* 19 x28)) 30))) (let ((?v_131 (not ?v_167)) (?v_161 (< (+ ?v_160 (* 6 x9) (* 55 x7)) 16))) (let ((?v_171 (not ?v_161)) (?v_4 (<= (+ (* (- 43) x11) (* 16 x13) (* 20 x38)) 30)) (?v_6 (< (+ (- (* (- 13) x39) (* 30 x29)) (* 8 x18)) 34)) (?v_42 (< (+ (- (* (- 47) x37) (* 37 x39)) (* 31 x25)) (- 22)))) (let ((?v_7 (not ?v_42)) (?v_181 (= (+ (* (- 49) x35) (* 23 x37) (* 45 x26)) 7))) (let ((?v_155 (not ?v_181)) (?v_13 (distinct (+ (- (* 16 x30) (* 39 x22)) (* 16 x17)) (- 51))) (?v_144 (<= (- (+ (* (- 46) x1) (* 35 x25)) (* 22 x23)) 32))) (let ((?v_205 (not ?v_144)) (?v_15 (<= (+ (- (* (- 35) x31) (* 51 x7)) (* 48 x23)) 27)) (?v_8 (<= (- (- (* 8 x0) (* 55 x36)) (* 43 x28)) (- 43))) (?v_45 (= (- (+ (* (- 14) x17) (* 26 x10)) (* 57 x24)) (- 11)))) (let ((?v_96 (not ?v_45)) (?v_54 (<= (+ (* 8 x22) (* 5 x14) (* 50 x28)) (- 51)))) (let ((?v_118 (not ?v_54)) (?v_29 (<= (+ (- (* (- 13) x8) (* 40 x24)) (* 41 x19)) 44)) (?v_124 (< (+ (* 54 x12) (* 12 x4)) (- 35)))) (let ((?v_98 (not ?v_124)) (?v_50 (< (+ (- (* (- 41) x26) (* 3 x13)) (* 43 x8)) 41)) (?v_17 (<= (+ (* (- 36) x14) (* 7 x1) (* 3 x15)) 9))) (let ((?v_154 (not ?v_17)) (?v_33 (not ?v_6)) (?v_175 (< (- (+ (* (- 24) x1) (* 44 x38)) (* 47 x25)) 40))) (let ((?v_206 (not ?v_175)) (?v_25 (not ?v_8)) (?v_35 (< (- (+ (* (- 36) x36) (* 23 x1)) (* 16 x21)) (- 13))) (?v_110 (distinct (+ (* 45 x39) (* 15 x23) (* 29 x26)) (- 11)))) (let ((?v_102 (not ?v_110)) (?v_77 (not ?v_15)) (?v_39 (= (+ (- (* 51 x0) (* 37 x28)) (* 46 x31)) (- 56))) (?v_49 (<= (- (- (* (- 46) x32) (* 21 x9)) (* 32 x9)) 40))) (let ((?v_184 (not ?v_49)) (?v_190 (= (- (- (* (- 25) x32) (* 38 x17)) (* 42 x11)) (- 18)))) (let ((?v_132 (not ?v_190)) (?v_58 (distinct (- (- (* (- 29) x25) (* 3 x20)) 0) 20))) (let ((?v_115 (not ?v_58)) (?v_177 (<= (- (+ (* (- 10) x11) (* 2 x25)) (* 20 x7)) (- 21)))) (let ((?v_64 (not ?v_177)) (?v_112 (distinct (- (+ (* (- 2) x5) (* 23 x7)) (* 23 x5)) 10)) (?v_127 (<= (+ (- (* 31 x26) (* 11 x1)) (* 21 x33)) (- 2))) (?v_74 (not ?v_35)) (?v_46 (<= (+ (* (- 38) x19) (* 5 x17) (* 50 x27)) 1)) (?v_90 (distinct (+ (* (- 25) x9) (* 29 x30) (* 31 x2)) (- 47)))) (let ((?v_51 (not ?v_90)) (?v_75 (< (- (- (* (- 40) x3) (* 15 x33)) (* 16 x27)) 16))) (let ((?v_133 (not ?v_75)) (?v_180 (not ?v_50)) (?v_79 (not ?v_4)) (?v_103 (<= (- (- (* (- 7) x25) (* 6 x28)) (* 32 x14)) 30)) (?v_140 (not ?v_13)) (?v_71 (distinct (+ (- 0 (* 20 x25)) (* 25 x2)) (- 20))) (?v_88 (<= (+ (* 13 x15) (* 4 x5) (* 27 x29)) (- 57))) (?v_188 (not ?v_46)) (?v_149 (= (+ (- (* 27 x34) (* 20 x10)) (* 46 x36)) (- 4))) (?v_97 (not ?v_29)) (?v_95 (<= (+ (* 24 x8) (* 57 x15) (* 20 x27)) (- 8)))) (let ((?v_91 (not ?v_95)) (?v_126 (< (+ (- (* (- 19) x29) (* 51 x26)) (* 16 x18)) (- 17))) (?v_123 (not ?v_88)) (?v_192 (not ?v_112)) (?v_196 (not ?v_127))) (let ((?v_178 (not ?v_126)) (?v_185 (not ?v_103)) (?v_163 (not ?v_71))) (let ((?v_195 (or ?v_162 ?v_163)) (?v_191 (not ?v_39))) (and (and (and (and (and (and (and (and (and (and (and (and (and (and (and (and (and (and (and (and (and (and (and (and (and (and (and (and (and (and (and (and (and (and (and (and (and (and (and (and (and (and (and (and (and (and (and (and (and (and (and (and (and (and (and (and (and (and (and (and (and (and (and (and (and (and (and (and (and (and (and (and (and (and (and (and (and (and (and (and (and (and (and (and (and (and (and (and (and (and (and (and (and (and (and (and (and (and (and (and (and (and (and (and (and (and (and (and (and (and (and (and (and (and (and (and (and (and (and (and (and (and (and (and (and (and (and (and (and (and (and (and (and (and (and (and (and (and (and (and (and (and (and (and (and (and (and (and (and (and (and (and (and (and (and (and (and (and (and (and (and (and (and (and (and (and (and (and (and (and (and (and (and (and (and (and (and (and (and (and (and (and (and (and (and (and (and (and (and (and (and (and (and (and (and (and (and (and (and (and (and (and (and (and (and (and (and (and (and (and (and (and (and (and (and (and (and (and (and (and (and (and (and (and (and (and (and (and (and (and (and (and (and (and (and (and (and (and (and (and (and (and (and (and (and (and (and (and (and (and (and (and (and (and (and (and (and (and (and (and (and (and (and (and (and (and (and (and (and (and (and (and (and (and (and (and (and (and (and (and (and (and (and (and (and (and (and (and (and (and (and (and (and (and (and (and (and (and (and (and (and (and (and (and (and (and (and (and (and (and (and (and (and (and (and (and (and (and (and (and (and (and (and (and (and (and (and (and (and (and (and (and (and (and (and (and (and (and (and (and (and (and (and (and (and (and (and (and (and (and (and (and (and (and (and (and (and (and (and (and (and (and (and (and (and (and (and (and (and (and (and (and (and (and (and (and (and (and (and (and (and (and (and (and (and (and (and (and (and (and (and (and (and (and (and (and (and (and (and (and (and (and (and (and (and (and (and (and (and (and (and (and (and (and (and (and (and (and (and (and (and (and (and (and (and (and (and (and (and (and (and (and (and (and (and (and (and (and (and (and (and (and (and (and (and (and (and (and (and (and (and (and (and (and (and (and (and (and (and (and (and (and (and (and (and (and (and (and (and (and (and (and (and (and (and (and (and (and (and (or (or ?v_3 ?v_47) ?v_44) (or (or ?v_53 ?v_4) ?v_111)) (or (or P34 ?v_12) P21)) (or (or ?v_6 ?v_21) ?v_138)) (or (or ?v_59 ?v_7) ?v_87)) (or (or P33 ?v_70) ?v_38)) (or (or ?v_155 ?v_76) ?v_24)) (or (or ?v_202 ?v_114) P11)) (or (or ?v_13 ?v_170) ?v_5)) (or (or ?v_30 ?v_100) ?v_20)) (or (or ?v_205 ?v_15) P11)) (or (or ?v_68 P13) ?v_8)) (or (or P20 P36) P25)) (or (or ?v_96 P22) ?v_118)) (or (or ?v_4 ?v_29) ?v_52)) (or (or ?v_98 ?v_28) ?v_3)) (or (or P38 ?v_200) ?v_43)) (or (or ?v_50 ?v_154) ?v_33)) (or (or ?v_7 ?v_26) ?v_37)) (or (or ?v_86 ?v_206) ?v_14)) (or (or ?v_25 P3) ?v_36)) (or (or ?v_9 ?v_60) ?v_82)) (or (or ?v_7 ?v_9) P1)) (or (or P13 ?v_10) ?v_19)) (or (or ?v_84 ?v_16) ?v_35)) (or (or ?v_102 ?v_13) ?v_12)) (or (or ?v_14 P28) ?v_4)) (or (or ?v_77 ?v_66) P4)) (or (or ?v_113 ?v_5) P11)) (or (or ?v_194 ?v_61) ?v_72)) (or (or ?v_16 ?v_17) ?v_39)) (or (or ?v_120 ?v_18) ?v_19)) (or (or ?v_20 P30) ?v_41)) (or (or ?v_14 ?v_184) P8)) (or (or ?v_21 ?v_22) ?v_55)) (or (or ?v_23 ?v_24) ?v_14)) (or (or ?v_25 P10) ?v_26)) (or (or ?v_132 ?v_40) ?v_27)) (or (or ?v_115 P17) ?v_28)) (or (or ?v_29 ?v_30) ?v_31)) (or (or P37 ?v_56) P0)) (or (or ?v_64 ?v_33) ?v_112)) (or (or P21 ?v_63) ?v_127)) (or (or ?v_85 ?v_74) ?v_36)) (or (or ?v_46 ?v_142) ?v_51)) (or (or P7 ?v_83) P38)) (or (or P39 ?v_6) ?v_37)) (or (or ?v_38 ?v_182) ?v_39)) (or (or P27 ?v_20) ?v_146)) (or (or ?v_41 ?v_57) ?v_48)) (or (or ?v_42 ?v_26) P24)) (or (or ?v_43 ?v_44) ?v_45)) (or (or P31 ?v_5) ?v_159)) (or (or ?v_46 ?v_166) ?v_21)) (or (or ?v_48 ?v_49) ?v_134)) (or (or ?v_46 ?v_133) ?v_44)) (or (or ?v_180 P31) ?v_19)) (or (or ?v_51 ?v_52) ?v_73)) (or (or ?v_129 ?v_169) P27)) (or (or ?v_30 P38) ?v_79)) (or (or ?v_41 ?v_39) ?v_103)) (or (or ?v_140 ?v_99) ?v_93)) (or (or ?v_78 P33) ?v_30)) (or (or ?v_54 ?v_22) ?v_55)) (or (or ?v_41 ?v_56) P14)) (or (or ?v_9 ?v_57) ?v_172)) (or (or ?v_71 P1) ?v_58)) (or (or ?v_10 P17) ?v_59)) (or (or ?v_46 ?v_152) ?v_88)) (or (or ?v_188 ?v_39) ?v_149)) (or (or ?v_173 ?v_193) ?v_61)) (or (or P37 ?v_62) ?v_135)) (or (or ?v_63 ?v_69) ?v_18)) (or (or P26 ?v_64) ?v_67)) (or (or ?v_145 ?v_107) ?v_183)) (or (or ?v_68 ?v_69) ?v_14)) (or (or ?v_174 ?v_104) P20)) (or (or ?v_6 ?v_71) ?v_72)) (or (or ?v_73 ?v_97) ?v_74)) (or (or ?v_36 ?v_75) ?v_128)) (or (or ?v_76 ?v_28) ?v_77)) (or (or ?v_37 ?v_117) ?v_79)) (or (or ?v_80 P32) ?v_91)) (or (or ?v_79 ?v_203) ?v_82)) (or (or ?v_83 ?v_119) ?v_126)) (or (or ?v_24 ?v_116) ?v_101)) (or (or ?v_28 P30) ?v_84)) (or (or ?v_38 ?v_131) P11)) (or (or ?v_48 ?v_106) ?v_31)) (or (or ?v_86 ?v_21) ?v_17)) (or (or P19 ?v_87) ?v_123)) (or (or P21 ?v_70) P30)) (or (or ?v_89 ?v_90) ?v_46)) (or (or ?v_91 ?v_92) ?v_153)) (or (or ?v_36 ?v_79) ?v_7)) (or (or ?v_139 ?v_108) ?v_94)) (or (or ?v_95 ?v_47) ?v_87)) (or (or ?v_96 ?v_97) ?v_40)) (or (or ?v_98 ?v_99) ?v_95)) (or (or ?v_100 ?v_7) ?v_68)) (or (or ?v_164 ?v_102) ?v_103)) (or (or ?v_10 ?v_104) ?v_96)) (or (or ?v_105 ?v_42) P17)) (or (or ?v_102 ?v_21) ?v_106)) (or (or ?v_107 ?v_151) P22)) (or (or ?v_90 ?v_35) ?v_14)) (or (or ?v_40 ?v_108) P16)) (or (or P26 ?v_109) ?v_16)) (or (or P9 ?v_110) ?v_111)) (or (or ?v_112 ?v_75) ?v_105)) (or (or ?v_113 ?v_59) ?v_108)) (or (or ?v_199 ?v_114) ?v_10)) (or (or ?v_47 ?v_130) P2)) (or (or ?v_36 ?v_115) ?v_136)) (or (or ?v_84 ?v_116) ?v_92)) (or (or ?v_5 P9) P7)) (or (or ?v_111 ?v_82) ?v_110)) (or (or ?v_92 ?v_141) P32)) (or (or ?v_94 P6) ?v_15)) (or (or ?v_122 ?v_18) ?v_116)) (or (or P33 ?v_117) ?v_60)) (or (or ?v_158 ?v_60) ?v_24)) (or (or ?v_118 ?v_84) ?v_24)) (or (or ?v_119 ?v_120) ?v_192)) (or (or P17 ?v_48) ?v_121)) (or (or ?v_31 ?v_17) ?v_122)) (or (or ?v_89 P8) ?v_54)) (or (or ?v_70 ?v_123) ?v_124)) (or (or ?v_60 ?v_4) ?v_125)) (or (or ?v_126 ?v_13) ?v_127)) (or (or P24 ?v_118) ?v_13)) (or (or ?v_90 ?v_92) ?v_25)) (or (or ?v_6 ?v_43) ?v_20)) (or (or ?v_7 ?v_94) ?v_128)) (or (or ?v_38 ?v_196) ?v_115)) (or (or ?v_79 ?v_111) ?v_100)) (or (or ?v_178 ?v_16) ?v_27)) (or (or ?v_79 ?v_80) ?v_40)) (or (or P3 ?v_84) ?v_185)) (or (or ?v_129 ?v_80) P18)) (or (or ?v_130 ?v_83) ?v_131)) (or (or ?v_132 ?v_76) ?v_133)) (or (or P24 ?v_133) ?v_55)) (or (or ?v_28 ?v_176) ?v_134)) (or (or ?v_77 ?v_77) ?v_135)) (or (or ?v_136 ?v_63) ?v_25)) (or (or ?v_18 ?v_92) ?v_62)) (or (or ?v_137 P30) ?v_138)) (or (or ?v_85 ?v_139) ?v_7)) (or (or ?v_77 ?v_24) ?v_58)) (or (or ?v_108 ?v_137) ?v_72)) (or (or ?v_140 ?v_88) ?v_92)) (or (or P4 ?v_162) ?v_163)) (or (or P21 ?v_107) ?v_187)) (or (or ?v_94 ?v_80) ?v_26)) (or (or ?v_147 ?v_59) ?v_7)) (or (or ?v_142 ?v_143) P14)) (or (or P21 ?v_106) ?v_97)) (or (or P28 ?v_20) ?v_144)) (or (or P36 ?v_145) ?v_87)) (or (or ?v_43 ?v_144) ?v_74)) (or (or ?v_146 ?v_113) ?v_64)) (or (or P18 ?v_87) ?v_121)) (or (or ?v_105 ?v_147) ?v_4)) (or (or ?v_46 P28) ?v_16)) (or (or ?v_3 ?v_124) ?v_148)) (or (or P37 ?v_17) ?v_43)) (or (or P39 ?v_17) ?v_149)) (or (or ?v_22 P31) ?v_105)) (or (or ?v_150 ?v_151) ?v_104)) (or (or ?v_152 ?v_102) ?v_107)) (or (or ?v_62 ?v_148) ?v_45)) (or (or ?v_47 ?v_112) ?v_82)) (or (or P1 ?v_83) ?v_93)) (or (or ?v_138 ?v_53) ?v_128)) (or (or P10 ?v_13) ?v_6)) (or (or ?v_30 ?v_153) ?v_154)) (or (or ?v_132 ?v_140) ?v_70)) (or (or ?v_45 ?v_59) ?v_102)) (or (or ?v_36 ?v_122) ?v_154)) (or (or ?v_16 ?v_155) P39)) (or (or ?v_156 ?v_165) ?v_88)) (or (or ?v_26 P7) ?v_90)) (or (or P19 ?v_157) ?v_158)) (or (or ?v_148 ?v_159) ?v_64)) (or (or P16 ?v_7) ?v_131)) (or (or ?v_171 P14) P31)) (or (or ?v_58 ?v_24) ?v_161)) (or ?v_195 ?v_87)) (or (or ?v_22 ?v_43) ?v_26)) (or (or ?v_164 ?v_88) ?v_133)) (or (or P11 ?v_29) ?v_82)) (or (or P38 ?v_77) ?v_165)) (or (or ?v_73 ?v_49) P36)) (or (or ?v_82 ?v_73) ?v_126)) (or (or ?v_166 ?v_121) ?v_9)) (or (or P32 ?v_155) ?v_167)) (or (or ?v_97 ?v_115) P25)) (or (or ?v_101 ?v_43) ?v_148)) (or (or ?v_99 ?v_131) P12)) (or (or ?v_141 P9) ?v_126)) (or (or P37 P21) ?v_77)) (or (or ?v_168 ?v_169) ?v_39)) (or (or P19 ?v_166) P18)) (or (or ?v_170 ?v_52) ?v_3)) (or (or ?v_116 ?v_142) ?v_50)) (or (or ?v_66 ?v_171) ?v_36)) (or (or ?v_49 ?v_96) ?v_39)) (or (or ?v_172 ?v_110) P8)) (or (or ?v_130 P39) P13)) (or (or ?v_140 ?v_173) P35)) (or (or ?v_7 ?v_157) ?v_109)) (or (or ?v_147 P37) ?v_123)) (or (or ?v_136 ?v_55) ?v_19)) (or (or ?v_99 ?v_164) ?v_157)) (or (or ?v_50 ?v_174) ?v_175)) (or (or ?v_23 ?v_77) ?v_176)) (or (or ?v_122 ?v_85) ?v_197)) (or (or ?v_177 ?v_92) ?v_29)) (or (or ?v_87 ?v_148) ?v_127)) (or (or ?v_92 ?v_87) P15)) (or (or P35 ?v_53) P32)) (or (or ?v_96 ?v_63) ?v_139)) (or (or ?v_78 ?v_37) ?v_158)) (or (or ?v_75 ?v_79) ?v_30)) (or (or ?v_151 ?v_26) P3)) (or (or ?v_189 ?v_167) ?v_18)) (or (or ?v_139 P6) ?v_103)) (or (or ?v_173 ?v_28) ?v_121)) (or (or ?v_121 P27) ?v_175)) (or (or ?v_153 P25) ?v_139)) (or (or ?v_178 ?v_136) ?v_179)) (or (or ?v_78 ?v_103) ?v_142)) (or (or ?v_42 ?v_180) ?v_170)) (or (or ?v_181 ?v_45) ?v_161)) (or (or ?v_23 ?v_90) P5)) (or (or ?v_130 ?v_66) ?v_182)) (or (or ?v_173 ?v_183) ?v_63)) (or (or P38 ?v_115) ?v_66)) (or (or ?v_175 ?v_84) ?v_47)) (or (or ?v_80 ?v_25) ?v_74)) (or (or ?v_181 ?v_75) ?v_131)) (or (or ?v_184 P22) ?v_186)) (or (or P37 P15) P18)) (or (or ?v_70 ?v_156) ?v_165)) (or (or ?v_44 ?v_17) P36)) (or (or ?v_107 ?v_16) ?v_141)) (or (or ?v_43 P39) ?v_148)) (or (or P20 ?v_139) ?v_95)) (or (or ?v_37 ?v_37) P14)) (or (or P34 P2) P5)) (or (or ?v_185 ?v_186) ?v_182)) (or (or ?v_157 P12) P26)) (or (or ?v_198 ?v_121) P29)) (or (or P15 ?v_191) ?v_54)) (or (or ?v_166 ?v_31) ?v_147)) (or (or ?v_15 P33) ?v_44)) (or (or ?v_19 ?v_185) ?v_54)) (or (or ?v_117 P7) ?v_28)) (or (or ?v_187 ?v_58) P34)) (or (or ?v_102 ?v_188) P23)) (or (or ?v_4 ?v_128) ?v_177)) (or (or ?v_66 ?v_22) ?v_148)) (or (or ?v_9 ?v_210) ?v_18)) (or (or ?v_61 ?v_27) ?v_190)) (or (or ?v_51 ?v_16) ?v_58)) (or (or ?v_125 ?v_139) P39)) (or (or ?v_170 ?v_128) ?v_71)) (or (or ?v_117 ?v_20) ?v_17)) (or (or ?v_128 ?v_35) P21)) (or (or ?v_73 ?v_13) ?v_183)) (or (or P34 ?v_62) P6)) (or (or ?v_187 P8) P11)) (or (or P0 ?v_140) P6)) (or (or ?v_179 ?v_114) P11)) (or (or ?v_13 ?v_181) ?v_190)) (or (or ?v_47 ?v_191) ?v_15)) (or (or ?v_71 ?v_105) ?v_115)) (or ?v_201 P6)) (or (or ?v_121 ?v_140) ?v_82)) (or (or ?v_104 P18) ?v_79)) (or (or ?v_30 ?v_140) ?v_137)) (or (or ?v_152 ?v_93) P34)) (or (or ?v_186 ?v_27) P19)) (or (or ?v_87 ?v_177) ?v_49)) (or (or ?v_66 ?v_45) ?v_47)) (or (or ?v_163 P23) ?v_48)) (or (or P21 ?v_25) ?v_80)) (or (or P18 ?v_68) P34)) (or (or P19 ?v_191) ?v_40)) (or (or P20 P4) P15)) (or (or P10 ?v_155) P39)) (or (or ?v_112 P39) ?v_98)) (or (or P28 ?v_192) P37)) (or (or ?v_116 P4) ?v_12)) (or (or ?v_162 ?v_186) ?v_79)) (or (or ?v_192 ?v_64) P30)) (or (or ?v_193 ?v_194) ?v_100)) (or ?v_195 P26)) (or (or ?v_38 ?v_120) ?v_31)) (or (or ?v_79 ?v_46) P12)) (or (or ?v_55 ?v_190) ?v_134)) (or (or ?v_133 ?v_139) ?v_80)) (or (or ?v_96 ?v_15) ?v_90)) (or (or ?v_132 P27) ?v_184)) (or (or ?v_141 ?v_44) ?v_121)) (or (or ?v_187 ?v_3) ?v_87)) (or (or ?v_5 ?v_151) ?v_165)) (or (or P17 ?v_165) ?v_46)) (or (or ?v_26 ?v_39) ?v_196)) (or (or ?v_133 ?v_197) ?v_149)) (or (or ?v_90 ?v_184) ?v_9)) (or (or ?v_80 ?v_43) ?v_17)) (or (or ?v_53 ?v_143) ?v_15)) (or (or P19 ?v_161) P3)) (or (or ?v_70 ?v_131) ?v_152)) (or (or ?v_27 ?v_7) ?v_126)) (or (or P13 ?v_110) ?v_37)) (or (or ?v_198 ?v_118) ?v_53)) (or (or ?v_166 ?v_58) ?v_95)) (or (or ?v_204 ?v_102) ?v_129)) (or (or ?v_52 ?v_208) ?v_151)) (or (or ?v_155 ?v_180) ?v_77)) (or (or ?v_142 ?v_174) ?v_119)) (or (or ?v_145 P26) ?v_71)) (or (or ?v_174 ?v_109) P6)) (or (or ?v_139 ?v_199) ?v_119)) (or (or ?v_131 ?v_200) ?v_184)) (or (or ?v_122 ?v_146) ?v_10)) (or (or ?v_177 P14) ?v_193)) (or (or P10 ?v_122) ?v_185)) (or (or ?v_39 ?v_8) P6)) (or (or ?v_126 ?v_40) ?v_45)) (or ?v_201 ?v_87)) (or (or ?v_164 ?v_54) P1)) (or (or ?v_181 ?v_202) ?v_83)) (or (or ?v_31 ?v_106) ?v_129)) (or (or ?v_106 ?v_141) ?v_150)) (or (or ?v_166 ?v_187) ?v_123)) (or (or P16 ?v_135) ?v_171)) (or (or ?v_80 ?v_161) ?v_153)) (or (or ?v_52 ?v_76) ?v_169)) (or (or P2 ?v_136) ?v_6)) (or (or ?v_191 ?v_85) ?v_8)) (or (or ?v_9 ?v_87) P29)) (or (or ?v_152 P26) ?v_46)) (or (or ?v_53 ?v_99) ?v_156)) (or (or ?v_16 ?v_42) ?v_71)) (or (or ?v_97 ?v_49) ?v_118)) (or (or P0 P8) ?v_13)) (or (or ?v_36 ?v_80) ?v_62)) (or (or ?v_129 ?v_77) ?v_79)) (or (or ?v_51 ?v_63) P28)) (or (or ?v_124 ?v_182) ?v_70)) (or (or ?v_127 ?v_87) ?v_83)) (or (or ?v_80 P16) (not ?v_149))) (or (or ?v_90 P26) P1)) (or (or ?v_187 ?v_145) ?v_179)) (or (or ?v_75 ?v_115) ?v_86)) (or (or P13 ?v_203) ?v_82)) (or (or ?v_109 ?v_25) ?v_92)) (or (or ?v_78 ?v_101) ?v_197)) (or (or ?v_85 ?v_135) ?v_58)) (or (or ?v_8 ?v_21) ?v_86)) (or (or ?v_154 P18) ?v_88)) (or (or ?v_8 ?v_25) ?v_31)) (or (or ?v_172 ?v_117) ?v_35)) (or (or ?v_74 P20) ?v_67)) (or (or ?v_204 ?v_50) ?v_37)) (or (or P17 ?v_42) P34)) (or (or ?v_118 ?v_37) ?v_182)) (or (or ?v_33 ?v_96) P20)) (or (or ?v_181 ?v_134) ?v_68)) (or (or P26 ?v_29) ?v_93)) (or (or ?v_205 P35) ?v_151)) (or (or ?v_75 ?v_51) ?v_92)) (or (or ?v_42 ?v_121) ?v_206)) (or (or ?v_165 ?v_19) ?v_98)) (or (or P14 ?v_20) ?v_139)) (or (or ?v_23 ?v_98) ?v_115)) (or ?v_207 ?v_185)) (or (or ?v_164 ?v_96) P20)) (or (or ?v_193 ?v_9) P35)) (or (or ?v_177 ?v_35) ?v_14)) (or (or ?v_113 ?v_147) P1)) (or ?v_207 ?v_162)) (or (or ?v_88 ?v_140) ?v_87)) (or (or ?v_30 ?v_93) P28)) (or (or ?v_148 P32) ?v_200)) (or (or ?v_52 ?v_55) ?v_35)) (or (or ?v_143 ?v_58) ?v_166)) (or (or ?v_143 ?v_4) ?v_19)) (or (or ?v_58 ?v_85) ?v_147)) (or (or ?v_106 ?v_62) ?v_95)) (or (or ?v_55 ?v_98) ?v_45)) (or (or ?v_175 P19) ?v_176)) (or (or ?v_155 ?v_26) ?v_199)) (or (or ?v_88 ?v_167) ?v_28)) (or (or ?v_110 P7) ?v_174)) (or (or ?v_80 ?v_74) ?v_123)) (or (or ?v_106 P10) P1)) (or (or ?v_76 ?v_155) P29)) (or (or ?v_88 ?v_147) ?v_29)) (or (or ?v_95 ?v_193) ?v_83)) (or (or ?v_59 ?v_168) P17)) (or (or ?v_193 ?v_205) ?v_127)) (or (or ?v_91 P10) ?v_114)) (or (or ?v_106 ?v_39) P8)) (or (or ?v_206 ?v_165) ?v_158)) (or (or ?v_4 ?v_164) P11)) (or (or ?v_115 ?v_144) ?v_181)) (or (or ?v_39 P29) P5)) (or (or ?v_169 ?v_136) ?v_62)) (or (or ?v_191 ?v_82) ?v_154)) (or (or ?v_178 P23) P2)) (or (or ?v_143 ?v_52) ?v_173)) (or (or ?v_176 ?v_107) ?v_163)) (or (or ?v_202 ?v_181) P16)) (or (or ?v_49 ?v_24) P9)) (or (or ?v_85 ?v_157) ?v_206)) (or (or P39 ?v_184) P5)) (or (or ?v_147 ?v_97) ?v_151)) (or (or P35 P34) ?v_92)) (or (or ?v_153 ?v_179) ?v_209)) (or (or ?v_41 ?v_100) ?v_26)) (or (or ?v_173 ?v_6) ?v_97)) (or (or ?v_113 ?v_191) ?v_200)) (or (or P24 ?v_52) ?v_50)) (or (or ?v_142 ?v_20) ?v_124)) (or (or ?v_29 P15) ?v_171)) (or (or ?v_41 P31) ?v_146)) (or (or P36 ?v_192) ?v_102)) (or (or ?v_131 ?v_129) ?v_98)) (or (or ?v_180 ?v_53) ?v_68)) (or (or ?v_19 ?v_36) ?v_125)) (or (or ?v_78 ?v_54) ?v_7)) (or (or P27 ?v_15) ?v_204)) (or (or P1 ?v_125) ?v_128)) (or (or ?v_150 ?v_208) ?v_96)) (or (or ?v_87 P39) P28)) (or (or ?v_150 ?v_9) P13)) (or (or ?v_186 ?v_181) ?v_144)) (or (or P37 ?v_57) ?v_94)) (or (or P31 ?v_30) ?v_100)) (or (or P33 ?v_97) ?v_26)) (or (or ?v_88 ?v_196) ?v_189)) (or (or ?v_209 ?v_80) ?v_128)) (or (or ?v_159 ?v_107) ?v_59)) (or (or ?v_80 ?v_92) ?v_150)) (or (or ?v_210 ?v_114) ?v_40)) (or (or ?v_113 ?v_167) P1)) (or (or ?v_188 P34) ?v_63)) (or (or P12 ?v_123) P30)) (or (or ?v_167 ?v_16) ?v_185)) (or (or ?v_115 ?v_98) ?v_30)) (or (or ?v_27 P12) ?v_164)) (or (or ?v_162 P34) ?v_80)) (or (or ?v_139 ?v_40) P38)) (or (or ?v_84 ?v_198) ?v_122)) (or (or ?v_85 ?v_194) ?v_198)) (or (or ?v_113 ?v_95) ?v_210)) (or (or P6 P6) ?v_72)) (or (or P27 ?v_128) ?v_172)) (or (or ?v_181 ?v_115) ?v_44)) (or (or P3 ?v_155) ?v_3)) (or (or ?v_199 ?v_101) ?v_105)) (or (or ?v_46 ?v_76) ?v_112)) (or (or ?v_204 ?v_155) ?v_91)) (or (or ?v_189 ?v_203) P12)) (or (or ?v_82 ?v_84) ?v_40)) (or (or P24 ?v_80) ?v_98)) (or (or ?v_104 ?v_53) ?v_107)) (or (or ?v_182 ?v_112) P32)) (or (or ?v_167 ?v_168) ?v_104)) (or (or ?v_57 ?v_197) P0)) (or (or ?v_142 P30) ?v_24)) (or (or ?v_36 ?v_176) ?v_44)) (or (or P39 ?v_96) ?v_136)) (or (or ?v_70 P31) ?v_25)) (or (or P14 ?v_186) P3)))))))))))))))))))))))))))))))))))
(check-sat)
(exit)
